c FILE: i080-232

c SOURCE: From steinlib

c DESCRIPTION: Steinlib instance with 80 nodes and 160 edges.

p edge 80 160
e 1 35
e 1 41
e 1 49
e 1 50
e 1 68
e 1 79
e 2 20
e 2 44
e 2 75
e 3 54
e 3 59
e 3 63
e 3 66
e 4 21
e 4 31
e 4 43
e 5 7
e 5 47
e 5 62
e 6 27
e 6 63
e 6 76
e 7 46
e 7 63
e 8 25
e 8 50
e 8 67
e 8 69
e 8 78
e 9 18
e 9 39
e 9 40
e 10 19
e 10 23
e 10 63
e 10 78
e 11 53
e 11 54
e 11 56
e 11 72
e 12 34
e 12 72
e 13 28
e 13 71
e 14 15
e 14 35
e 14 40
e 14 51
e 14 60
e 14 65
e 15 24
e 15 64
e 16 35
e 16 61
e 16 62
e 17 24
e 17 26
e 17 77
e 18 23
e 18 77
e 19 37
e 19 44
e 19 50
e 20 56
e 20 72
e 21 30
e 21 51
e 22 34
e 23 32
e 23 37
e 23 39
e 23 43
e 23 46
e 23 51
e 23 54
e 23 75
e 24 33
e 24 74
e 25 29
e 25 31
e 25 49
e 25 71
e 25 72
e 26 45
e 26 53
e 27 29
e 27 72
e 28 36
e 28 39
e 28 66
e 28 67
e 28 74
e 28 78
e 29 53
e 30 50
e 30 54
e 30 69
e 30 73
e 32 45
e 32 50
e 32 54
e 32 55
e 32 63
e 33 34
e 33 46
e 33 68
e 34 43
e 34 79
e 35 62
e 35 67
e 35 69
e 35 72
e 38 46
e 38 50
e 38 66
e 40 61
e 40 66
e 40 70
e 41 48
e 41 58
e 41 64
e 41 72
e 42 43
e 42 57
e 42 64
e 42 75
e 43 45
e 43 51
e 44 45
e 44 48
e 44 51
e 46 54
e 46 76
e 47 50
e 47 59
e 48 52
e 48 61
e 49 58
e 50 54
e 50 63
e 50 78
e 52 67
e 52 74
e 53 66
e 54 67
e 54 80
e 56 62
e 57 59
e 58 75
e 59 69
e 60 63
e 63 78
e 64 70
e 65 68
e 66 73
e 71 78
e 72 75
e 75 80
e 77 78
e 77 80
